words_train/words_882_SAT.qaiger
aag 63 24 0 1 39
36
44
42
30
46
40
22
6
26
28
24
34
38
32
12
2
48
10
14
18
8
4
20
16
127
50 47 31
52 51 14
54 43 27
56 54 11
58 41 25
60 59 8
62 39 23
64 63 6
66 62 7
68 37 21
70 68 5
72 69 4
74 35 19
76 75 2
78 77 73
80 79 71
82 80 67
84 83 65
86 84 61
88 58 9
90 89 87
92 90 57
94 55 10
96 45 29
98 97 12
100 99 95
102 100 93
104 96 13
106 50 15
108 107 105
110 108 103
112 111 53
114 49 33
116 115 16
118 114 17
120 119 117
122 121 112
124 120 113
126 125 123
i0 1 x[1]
i1 1 x[5]
i2 1 x[4]
i3 2 y[6]
i4 1 x[6]
i5 1 x[3]
i6 2 y[2]
i7 2 z[2]
i8 2 y[4]
i9 2 y[5]
i10 2 y[3]
i11 1 x[0]
i12 1 x[2]
i13 2 y[7]
i14 2 z[5]
i15 2 z[0]
i16 1 x[7]
i17 2 z[4]
i18 2 z[6]
i19 2 y[0]
i20 2 z[3]
i21 2 z[1]
i22 2 y[1]
i23 2 z[7]
o0 bv[0]
c
simplified
  >=
    add
      2 z
      or
        2 y
        1 x
    xor
      1
      1
