words_train/words_882_SAT.qaiger.qdimacs
p cnf 63 118
a 17 18 19 20 21 22 23 24 0
e 1 2 3 4 5 6 7 8 9 10 11 12 13 14 15 16 25 26 27 28 29 30 31 32 33 34 35 36 37 38 39 40 41 42 43 44 45 46 47 48 49 50 51 52 53 54 55 56 57 58 59 60 61 62 63 0
23 15 25 0
-23 -25 0
-15 -25 0
25 -7 26 0
-25 -26 0
7 -26 0
21 13 27 0
-21 -27 0
-13 -27 0
-27 5 28 0
27 -28 0
-5 -28 0
20 12 29 0
-20 -29 0
-12 -29 0
29 -4 30 0
-29 -30 0
4 -30 0
19 11 31 0
-19 -31 0
-11 -31 0
31 -3 32 0
-31 -32 0
3 -32 0
-31 3 33 0
31 -33 0
-3 -33 0
18 10 34 0
-18 -34 0
-10 -34 0
-34 2 35 0
34 -35 0
-2 -35 0
34 -2 36 0
-34 -36 0
2 -36 0
17 9 37 0
-17 -37 0
-9 -37 0
37 -1 38 0
-37 -38 0
1 -38 0
38 36 39 0
-38 -39 0
-36 -39 0
39 35 40 0
-39 -40 0
-35 -40 0
-40 33 41 0
40 -41 0
-33 -41 0
41 32 42 0
-41 -42 0
-32 -42 0
-42 30 43 0
42 -43 0
-30 -43 0
-29 4 44 0
29 -44 0
-4 -44 0
44 43 45 0
-44 -45 0
-43 -45 0
-45 28 46 0
45 -46 0
-28 -46 0
27 -5 47 0
-27 -47 0
5 -47 0
22 14 48 0
-22 -48 0
-14 -48 0
48 -6 49 0
-48 -49 0
6 -49 0
49 47 50 0
-49 -50 0
-47 -50 0
-50 46 51 0
50 -51 0
-46 -51 0
-48 6 52 0
48 -52 0
-6 -52 0
-25 7 53 0
25 -53 0
-7 -53 0
53 52 54 0
-53 -54 0
-52 -54 0
-54 51 55 0
54 -55 0
-51 -55 0
55 26 56 0
-55 -56 0
-26 -56 0
24 16 57 0
-24 -57 0
-16 -57 0
57 -8 58 0
-57 -58 0
8 -58 0
-57 8 59 0
57 -59 0
-8 -59 0
59 58 60 0
-59 -60 0
-58 -60 0
60 -56 61 0
-60 -61 0
56 -61 0
-60 56 62 0
60 -62 0
-56 -62 0
62 61 63 0
-62 -63 0
-61 -63 0
-63 0
